results/res_prop_muc/res_Cimatti_mathsat_cores/QF_UF/NEQ004_size5.smt.smt2.out

real	0m17.359s
user	0m12.240s
sys	0m0.280s
