results/res_prop_muc/res_Cimatti_mathsat_cores/QF_UF/NEQ004_size5.smt.smt2.res
unsat
( _c0
  _c1
  _c104
  _c130
  _c131
  _c132
  _c133
  _c134
  _c135
  _c136
  _c137
  _c138
  _c139
  _c140
  _c141
  _c142
  _c143
  _c144
  _c145
  _c146
  _c147
  _c148
  _c149
  _c150
  _c151
  _c152
  _c153
  _c154
  _c155
  _c156
  _c157
  _c164
  _c168
  _c169
  _c170
  _c174
  _c175
  _c177
  _c178
  _c2
  _c202
  _c203
  _c208
  _c215
  _c216
  _c218
  _c221
  _c244
  _c246
  _c250
  _c254
  _c255
  _c256
  _c258
  _c259
  _c260
  _c262
  _c265
  _c269
  _c271
  _c272
  _c273
  _c275
  _c276
  _c277
  _c28
  _c281
  _c285
  _c286
  _c288
  _c289
  _c290
  _c292
  _c30
  _c31
  _c32
  _c325
  _c326
  _c327
  _c328
  _c329
  _c33
  _c330
  _c331
  _c332
  _c333
  _c334
  _c335
  _c336
  _c337
  _c338
  _c339
  _c34
  _c340
  _c341
  _c342
  _c343
  _c344
  _c345
  _c346
  _c347
  _c348
  _c349
  _c35
  _c36
  _c37
  _c375
  _c376
  _c377
  _c378
  _c379
  _c380
  _c381
  _c382
  _c383
  _c384
  _c385
  _c386
  _c387
  _c388
  _c389
  _c390
  _c391
  _c392
  _c393
  _c394
  _c395
  _c396
  _c397
  _c398
  _c399
  _c40
  _c400
  _c401
  _c402
  _c403
  _c404
  _c405
  _c406
  _c407
  _c408
  _c409
  _c41
  _c410
  _c411
  _c412
  _c413
  _c414
  _c415
  _c416
  _c417
  _c418
  _c419
  _c42
  _c420
  _c421
  _c422
  _c423
  _c424
  _c425
  _c426
  _c427
  _c428
  _c429
  _c430
  _c431
  _c432
  _c433
  _c434
  _c435
  _c436
  _c437
  _c438
  _c439
  _c440
  _c441
  _c442
  _c443
  _c444
  _c445
  _c446
  _c447
  _c448
  _c449
  _c455
  _c458
  _c46
  _c475
  _c476
  _c477
  _c478
  _c479
  _c480
  _c481
  _c482
  _c484
  _c485
  _c487
  _c488
  _c489
  _c490
  _c491
  _c51
  _c52
  _c53 )
